(set-info :smt-lib-version 2.6)
(set-logic QF_NIA)
(set-info :source |
 more info in 'N. P. Lopes, L. Aksoy, V. Manquinho, J. Monteiro.
 Optimally Solving the MCM Problem Using Pseudo-Boolean Satisfiability.
 Technical Report RT/43/2010, INESC-ID, Nov. 2010'. |)
(set-info :category "industrial")
(set-info :status unknown)
(declare-fun X3 () Int)
(declare-fun X4 () Int)
(declare-fun X5 () Int)
(declare-fun X6 () Int)
(declare-fun X7 () Int)
(declare-fun X8 () Int)
(declare-fun X9 () Int)
(declare-fun X10 () Int)
(declare-fun S0 () Int)
(declare-fun S1 () Int)
(declare-fun S2 () Int)
(declare-fun S3 () Int)
(declare-fun S4 () Int)
(declare-fun S5 () Int)
(declare-fun S6 () Int)
(declare-fun S7 () Int)
(declare-fun S8 () Int)
(declare-fun S9 () Int)
(declare-fun S10 () Int)
(declare-fun S11 () Int)
(declare-fun S12 () Int)
(declare-fun S13 () Int)
(declare-fun S14 () Int)
(declare-fun S15 () Int)
(define-fun power2 ((x Int)) Bool
  (or (= x 1024) (= x 512) (= x 256) (= x 128) (= x 64) (= x 32) (= x 16) (= x 8) (= x 4) (= x 2) (= x 1)))
(assert (or
 (= X3 (+ S0 S1))
 (= X3 (- S0 S1))
 (= X3 (+ (* 33 S0) S1))
 (= X3 (- (* 33 S0) S1))
 (= X3 (- S0 (* 33 S1)))
 (= X3 (+ (* 33 S0) (* 33 S1)))
 (= X3 (- (* 33 S0) (* 33 S1)))
 (= X3 (+ (* 33 S0) (* 511 S1)))
 (= X3 (- (* 33 S0) (* 511 S1)))
 (= X3 (- (* 511 S0) (* 33 S1)))
 (= X3 (+ (* 33 S0) (* 15 S1)))
 (= X3 (- (* 33 S0) (* 15 S1)))
 (= X3 (- (* 15 S0) (* 33 S1)))
 (= X3 (+ (* 511 S0) S1))
 (= X3 (- (* 511 S0) S1))
 (= X3 (- S0 (* 511 S1)))
 (= X3 (+ (* 511 S0) (* 511 S1)))
 (= X3 (- (* 511 S0) (* 511 S1)))
 (= X3 (+ (* 511 S0) (* 15 S1)))
 (= X3 (- (* 511 S0) (* 15 S1)))
 (= X3 (- (* 15 S0) (* 511 S1)))
 (= X3 (+ (* 15 S0) S1))
 (= X3 (- (* 15 S0) S1))
 (= X3 (- S0 (* 15 S1)))
 (= X3 (+ (* 15 S0) (* 15 S1)))
 (= X3 (- (* 15 S0) (* 15 S1)))
))
(assert (and (> X3 0) (< X3 2048) (power2 S0) (power2 S1)))
(assert (or
 (= X4 (+ (* 33 S2) S3))
 (= X4 (- (* 33 S2) S3))
 (= X4 (- S2 (* 33 S3)))
 (= X4 (+ (* 33 S2) (* 33 S3)))
 (= X4 (- (* 33 S2) (* 33 S3)))
 (= X4 (+ (* 33 S2) (* 511 S3)))
 (= X4 (- (* 33 S2) (* 511 S3)))
 (= X4 (- (* 511 S2) (* 33 S3)))
 (= X4 (+ (* 33 S2) (* 15 S3)))
 (= X4 (- (* 33 S2) (* 15 S3)))
 (= X4 (- (* 15 S2) (* 33 S3)))
 (= X4 (+ (* 33 S2) (* X3 S3)))
 (= X4 (- (* 33 S2) (* X3 S3)))
 (= X4 (- (* X3 S2) (* 33 S3)))
 (= X4 (+ (* 511 S2) S3))
 (= X4 (- (* 511 S2) S3))
 (= X4 (- S2 (* 511 S3)))
 (= X4 (+ (* 511 S2) (* 511 S3)))
 (= X4 (- (* 511 S2) (* 511 S3)))
 (= X4 (+ (* 511 S2) (* 15 S3)))
 (= X4 (- (* 511 S2) (* 15 S3)))
 (= X4 (- (* 15 S2) (* 511 S3)))
 (= X4 (+ (* 511 S2) (* X3 S3)))
 (= X4 (- (* 511 S2) (* X3 S3)))
 (= X4 (- (* X3 S2) (* 511 S3)))
 (= X4 (+ (* 15 S2) S3))
 (= X4 (- (* 15 S2) S3))
 (= X4 (- S2 (* 15 S3)))
 (= X4 (+ (* 15 S2) (* 15 S3)))
 (= X4 (- (* 15 S2) (* 15 S3)))
 (= X4 (+ (* 15 S2) (* X3 S3)))
 (= X4 (- (* 15 S2) (* X3 S3)))
 (= X4 (- (* X3 S2) (* 15 S3)))
 (= X4 (+ (* X3 S2) S3))
 (= X4 (- (* X3 S2) S3))
 (= X4 (- S2 (* X3 S3)))
 (= X4 (+ (* X3 S2) (* X3 S3)))
 (= X4 (- (* X3 S2) (* X3 S3)))
))
(assert (and (> X4 0) (< X4 2048) (power2 S2) (power2 S3)))
(assert (or
 (= X5 (+ (* 33 S4) S5))
 (= X5 (- (* 33 S4) S5))
 (= X5 (- S4 (* 33 S5)))
 (= X5 (+ (* 33 S4) (* 33 S5)))
 (= X5 (- (* 33 S4) (* 33 S5)))
 (= X5 (+ (* 33 S4) (* 511 S5)))
 (= X5 (- (* 33 S4) (* 511 S5)))
 (= X5 (- (* 511 S4) (* 33 S5)))
 (= X5 (+ (* 33 S4) (* 15 S5)))
 (= X5 (- (* 33 S4) (* 15 S5)))
 (= X5 (- (* 15 S4) (* 33 S5)))
 (= X5 (+ (* 33 S4) (* X3 S5)))
 (= X5 (- (* 33 S4) (* X3 S5)))
 (= X5 (- (* X3 S4) (* 33 S5)))
 (= X5 (+ (* 33 S4) (* X4 S5)))
 (= X5 (- (* 33 S4) (* X4 S5)))
 (= X5 (- (* X4 S4) (* 33 S5)))
 (= X5 (+ (* 511 S4) S5))
 (= X5 (- (* 511 S4) S5))
 (= X5 (- S4 (* 511 S5)))
 (= X5 (+ (* 511 S4) (* 511 S5)))
 (= X5 (- (* 511 S4) (* 511 S5)))
 (= X5 (+ (* 511 S4) (* 15 S5)))
 (= X5 (- (* 511 S4) (* 15 S5)))
 (= X5 (- (* 15 S4) (* 511 S5)))
 (= X5 (+ (* 511 S4) (* X3 S5)))
 (= X5 (- (* 511 S4) (* X3 S5)))
 (= X5 (- (* X3 S4) (* 511 S5)))
 (= X5 (+ (* 511 S4) (* X4 S5)))
 (= X5 (- (* 511 S4) (* X4 S5)))
 (= X5 (- (* X4 S4) (* 511 S5)))
 (= X5 (+ (* 15 S4) S5))
 (= X5 (- (* 15 S4) S5))
 (= X5 (- S4 (* 15 S5)))
 (= X5 (+ (* 15 S4) (* 15 S5)))
 (= X5 (- (* 15 S4) (* 15 S5)))
 (= X5 (+ (* 15 S4) (* X3 S5)))
 (= X5 (- (* 15 S4) (* X3 S5)))
 (= X5 (- (* X3 S4) (* 15 S5)))
 (= X5 (+ (* 15 S4) (* X4 S5)))
 (= X5 (- (* 15 S4) (* X4 S5)))
 (= X5 (- (* X4 S4) (* 15 S5)))
 (= X5 (+ (* X3 S4) S5))
 (= X5 (- (* X3 S4) S5))
 (= X5 (- S4 (* X3 S5)))
 (= X5 (+ (* X3 S4) (* X3 S5)))
 (= X5 (- (* X3 S4) (* X3 S5)))
 (= X5 (+ (* X3 S4) (* X4 S5)))
 (= X5 (- (* X3 S4) (* X4 S5)))
 (= X5 (- (* X4 S4) (* X3 S5)))
 (= X5 (+ (* X4 S4) S5))
 (= X5 (- (* X4 S4) S5))
 (= X5 (- S4 (* X4 S5)))
 (= X5 (+ (* X4 S4) (* X4 S5)))
 (= X5 (- (* X4 S4) (* X4 S5)))
))
(assert (and (> X5 0) (< X5 2048) (power2 S4) (power2 S5)))
(assert (or
 (= X6 (+ (* 33 S6) S7))
 (= X6 (- (* 33 S6) S7))
 (= X6 (- S6 (* 33 S7)))
 (= X6 (+ (* 33 S6) (* 33 S7)))
 (= X6 (- (* 33 S6) (* 33 S7)))
 (= X6 (+ (* 33 S6) (* 511 S7)))
 (= X6 (- (* 33 S6) (* 511 S7)))
 (= X6 (- (* 511 S6) (* 33 S7)))
 (= X6 (+ (* 33 S6) (* 15 S7)))
 (= X6 (- (* 33 S6) (* 15 S7)))
 (= X6 (- (* 15 S6) (* 33 S7)))
 (= X6 (+ (* 33 S6) (* X3 S7)))
 (= X6 (- (* 33 S6) (* X3 S7)))
 (= X6 (- (* X3 S6) (* 33 S7)))
 (= X6 (+ (* 33 S6) (* X4 S7)))
 (= X6 (- (* 33 S6) (* X4 S7)))
 (= X6 (- (* X4 S6) (* 33 S7)))
 (= X6 (+ (* 33 S6) (* X5 S7)))
 (= X6 (- (* 33 S6) (* X5 S7)))
 (= X6 (- (* X5 S6) (* 33 S7)))
 (= X6 (+ (* 511 S6) S7))
 (= X6 (- (* 511 S6) S7))
 (= X6 (- S6 (* 511 S7)))
 (= X6 (+ (* 511 S6) (* 511 S7)))
 (= X6 (- (* 511 S6) (* 511 S7)))
 (= X6 (+ (* 511 S6) (* 15 S7)))
 (= X6 (- (* 511 S6) (* 15 S7)))
 (= X6 (- (* 15 S6) (* 511 S7)))
 (= X6 (+ (* 511 S6) (* X3 S7)))
 (= X6 (- (* 511 S6) (* X3 S7)))
 (= X6 (- (* X3 S6) (* 511 S7)))
 (= X6 (+ (* 511 S6) (* X4 S7)))
 (= X6 (- (* 511 S6) (* X4 S7)))
 (= X6 (- (* X4 S6) (* 511 S7)))
 (= X6 (+ (* 511 S6) (* X5 S7)))
 (= X6 (- (* 511 S6) (* X5 S7)))
 (= X6 (- (* X5 S6) (* 511 S7)))
 (= X6 (+ (* 15 S6) S7))
 (= X6 (- (* 15 S6) S7))
 (= X6 (- S6 (* 15 S7)))
 (= X6 (+ (* 15 S6) (* 15 S7)))
 (= X6 (- (* 15 S6) (* 15 S7)))
 (= X6 (+ (* 15 S6) (* X3 S7)))
 (= X6 (- (* 15 S6) (* X3 S7)))
 (= X6 (- (* X3 S6) (* 15 S7)))
 (= X6 (+ (* 15 S6) (* X4 S7)))
 (= X6 (- (* 15 S6) (* X4 S7)))
 (= X6 (- (* X4 S6) (* 15 S7)))
 (= X6 (+ (* 15 S6) (* X5 S7)))
 (= X6 (- (* 15 S6) (* X5 S7)))
 (= X6 (- (* X5 S6) (* 15 S7)))
 (= X6 (+ (* X3 S6) S7))
 (= X6 (- (* X3 S6) S7))
 (= X6 (- S6 (* X3 S7)))
 (= X6 (+ (* X3 S6) (* X3 S7)))
 (= X6 (- (* X3 S6) (* X3 S7)))
 (= X6 (+ (* X3 S6) (* X4 S7)))
 (= X6 (- (* X3 S6) (* X4 S7)))
 (= X6 (- (* X4 S6) (* X3 S7)))
 (= X6 (+ (* X3 S6) (* X5 S7)))
 (= X6 (- (* X3 S6) (* X5 S7)))
 (= X6 (- (* X5 S6) (* X3 S7)))
 (= X6 (+ (* X4 S6) S7))
 (= X6 (- (* X4 S6) S7))
 (= X6 (- S6 (* X4 S7)))
 (= X6 (+ (* X4 S6) (* X4 S7)))
 (= X6 (- (* X4 S6) (* X4 S7)))
 (= X6 (+ (* X4 S6) (* X5 S7)))
 (= X6 (- (* X4 S6) (* X5 S7)))
 (= X6 (- (* X5 S6) (* X4 S7)))
 (= X6 (+ (* X5 S6) S7))
 (= X6 (- (* X5 S6) S7))
 (= X6 (- S6 (* X5 S7)))
 (= X6 (+ (* X5 S6) (* X5 S7)))
 (= X6 (- (* X5 S6) (* X5 S7)))
))
(assert (and (> X6 0) (< X6 2048) (power2 S6) (power2 S7)))
(assert (or
 (= X7 (+ (* 33 S8) S9))
 (= X7 (- (* 33 S8) S9))
 (= X7 (- S8 (* 33 S9)))
 (= X7 (+ (* 33 S8) (* 33 S9)))
 (= X7 (- (* 33 S8) (* 33 S9)))
 (= X7 (+ (* 33 S8) (* 511 S9)))
 (= X7 (- (* 33 S8) (* 511 S9)))
 (= X7 (- (* 511 S8) (* 33 S9)))
 (= X7 (+ (* 33 S8) (* 15 S9)))
 (= X7 (- (* 33 S8) (* 15 S9)))
 (= X7 (- (* 15 S8) (* 33 S9)))
 (= X7 (+ (* 33 S8) (* X3 S9)))
 (= X7 (- (* 33 S8) (* X3 S9)))
 (= X7 (- (* X3 S8) (* 33 S9)))
 (= X7 (+ (* 33 S8) (* X4 S9)))
 (= X7 (- (* 33 S8) (* X4 S9)))
 (= X7 (- (* X4 S8) (* 33 S9)))
 (= X7 (+ (* 33 S8) (* X5 S9)))
 (= X7 (- (* 33 S8) (* X5 S9)))
 (= X7 (- (* X5 S8) (* 33 S9)))
 (= X7 (+ (* 33 S8) (* X6 S9)))
 (= X7 (- (* 33 S8) (* X6 S9)))
 (= X7 (- (* X6 S8) (* 33 S9)))
 (= X7 (+ (* 511 S8) S9))
 (= X7 (- (* 511 S8) S9))
 (= X7 (- S8 (* 511 S9)))
 (= X7 (+ (* 511 S8) (* 511 S9)))
 (= X7 (- (* 511 S8) (* 511 S9)))
 (= X7 (+ (* 511 S8) (* 15 S9)))
 (= X7 (- (* 511 S8) (* 15 S9)))
 (= X7 (- (* 15 S8) (* 511 S9)))
 (= X7 (+ (* 511 S8) (* X3 S9)))
 (= X7 (- (* 511 S8) (* X3 S9)))
 (= X7 (- (* X3 S8) (* 511 S9)))
 (= X7 (+ (* 511 S8) (* X4 S9)))
 (= X7 (- (* 511 S8) (* X4 S9)))
 (= X7 (- (* X4 S8) (* 511 S9)))
 (= X7 (+ (* 511 S8) (* X5 S9)))
 (= X7 (- (* 511 S8) (* X5 S9)))
 (= X7 (- (* X5 S8) (* 511 S9)))
 (= X7 (+ (* 511 S8) (* X6 S9)))
 (= X7 (- (* 511 S8) (* X6 S9)))
 (= X7 (- (* X6 S8) (* 511 S9)))
 (= X7 (+ (* 15 S8) S9))
 (= X7 (- (* 15 S8) S9))
 (= X7 (- S8 (* 15 S9)))
 (= X7 (+ (* 15 S8) (* 15 S9)))
 (= X7 (- (* 15 S8) (* 15 S9)))
 (= X7 (+ (* 15 S8) (* X3 S9)))
 (= X7 (- (* 15 S8) (* X3 S9)))
 (= X7 (- (* X3 S8) (* 15 S9)))
 (= X7 (+ (* 15 S8) (* X4 S9)))
 (= X7 (- (* 15 S8) (* X4 S9)))
 (= X7 (- (* X4 S8) (* 15 S9)))
 (= X7 (+ (* 15 S8) (* X5 S9)))
 (= X7 (- (* 15 S8) (* X5 S9)))
 (= X7 (- (* X5 S8) (* 15 S9)))
 (= X7 (+ (* 15 S8) (* X6 S9)))
 (= X7 (- (* 15 S8) (* X6 S9)))
 (= X7 (- (* X6 S8) (* 15 S9)))
 (= X7 (+ (* X3 S8) S9))
 (= X7 (- (* X3 S8) S9))
 (= X7 (- S8 (* X3 S9)))
 (= X7 (+ (* X3 S8) (* X3 S9)))
 (= X7 (- (* X3 S8) (* X3 S9)))
 (= X7 (+ (* X3 S8) (* X4 S9)))
 (= X7 (- (* X3 S8) (* X4 S9)))
 (= X7 (- (* X4 S8) (* X3 S9)))
 (= X7 (+ (* X3 S8) (* X5 S9)))
 (= X7 (- (* X3 S8) (* X5 S9)))
 (= X7 (- (* X5 S8) (* X3 S9)))
 (= X7 (+ (* X3 S8) (* X6 S9)))
 (= X7 (- (* X3 S8) (* X6 S9)))
 (= X7 (- (* X6 S8) (* X3 S9)))
 (= X7 (+ (* X4 S8) S9))
 (= X7 (- (* X4 S8) S9))
 (= X7 (- S8 (* X4 S9)))
 (= X7 (+ (* X4 S8) (* X4 S9)))
 (= X7 (- (* X4 S8) (* X4 S9)))
 (= X7 (+ (* X4 S8) (* X5 S9)))
 (= X7 (- (* X4 S8) (* X5 S9)))
 (= X7 (- (* X5 S8) (* X4 S9)))
 (= X7 (+ (* X4 S8) (* X6 S9)))
 (= X7 (- (* X4 S8) (* X6 S9)))
 (= X7 (- (* X6 S8) (* X4 S9)))
 (= X7 (+ (* X5 S8) S9))
 (= X7 (- (* X5 S8) S9))
 (= X7 (- S8 (* X5 S9)))
 (= X7 (+ (* X5 S8) (* X5 S9)))
 (= X7 (- (* X5 S8) (* X5 S9)))
 (= X7 (+ (* X5 S8) (* X6 S9)))
 (= X7 (- (* X5 S8) (* X6 S9)))
 (= X7 (- (* X6 S8) (* X5 S9)))
 (= X7 (+ (* X6 S8) S9))
 (= X7 (- (* X6 S8) S9))
 (= X7 (- S8 (* X6 S9)))
 (= X7 (+ (* X6 S8) (* X6 S9)))
 (= X7 (- (* X6 S8) (* X6 S9)))
))
(assert (and (> X7 0) (< X7 2048) (power2 S8) (power2 S9)))
(assert (or
 (= X8 (+ (* 33 S10) S11))
 (= X8 (- (* 33 S10) S11))
 (= X8 (- S10 (* 33 S11)))
 (= X8 (+ (* 33 S10) (* 33 S11)))
 (= X8 (- (* 33 S10) (* 33 S11)))
 (= X8 (+ (* 33 S10) (* 511 S11)))
 (= X8 (- (* 33 S10) (* 511 S11)))
 (= X8 (- (* 511 S10) (* 33 S11)))
 (= X8 (+ (* 33 S10) (* 15 S11)))
 (= X8 (- (* 33 S10) (* 15 S11)))
 (= X8 (- (* 15 S10) (* 33 S11)))
 (= X8 (+ (* 33 S10) (* X3 S11)))
 (= X8 (- (* 33 S10) (* X3 S11)))
 (= X8 (- (* X3 S10) (* 33 S11)))
 (= X8 (+ (* 33 S10) (* X4 S11)))
 (= X8 (- (* 33 S10) (* X4 S11)))
 (= X8 (- (* X4 S10) (* 33 S11)))
 (= X8 (+ (* 33 S10) (* X5 S11)))
 (= X8 (- (* 33 S10) (* X5 S11)))
 (= X8 (- (* X5 S10) (* 33 S11)))
 (= X8 (+ (* 33 S10) (* X6 S11)))
 (= X8 (- (* 33 S10) (* X6 S11)))
 (= X8 (- (* X6 S10) (* 33 S11)))
 (= X8 (+ (* 33 S10) (* X7 S11)))
 (= X8 (- (* 33 S10) (* X7 S11)))
 (= X8 (- (* X7 S10) (* 33 S11)))
 (= X8 (+ (* 511 S10) S11))
 (= X8 (- (* 511 S10) S11))
 (= X8 (- S10 (* 511 S11)))
 (= X8 (+ (* 511 S10) (* 511 S11)))
 (= X8 (- (* 511 S10) (* 511 S11)))
 (= X8 (+ (* 511 S10) (* 15 S11)))
 (= X8 (- (* 511 S10) (* 15 S11)))
 (= X8 (- (* 15 S10) (* 511 S11)))
 (= X8 (+ (* 511 S10) (* X3 S11)))
 (= X8 (- (* 511 S10) (* X3 S11)))
 (= X8 (- (* X3 S10) (* 511 S11)))
 (= X8 (+ (* 511 S10) (* X4 S11)))
 (= X8 (- (* 511 S10) (* X4 S11)))
 (= X8 (- (* X4 S10) (* 511 S11)))
 (= X8 (+ (* 511 S10) (* X5 S11)))
 (= X8 (- (* 511 S10) (* X5 S11)))
 (= X8 (- (* X5 S10) (* 511 S11)))
 (= X8 (+ (* 511 S10) (* X6 S11)))
 (= X8 (- (* 511 S10) (* X6 S11)))
 (= X8 (- (* X6 S10) (* 511 S11)))
 (= X8 (+ (* 511 S10) (* X7 S11)))
 (= X8 (- (* 511 S10) (* X7 S11)))
 (= X8 (- (* X7 S10) (* 511 S11)))
 (= X8 (+ (* 15 S10) S11))
 (= X8 (- (* 15 S10) S11))
 (= X8 (- S10 (* 15 S11)))
 (= X8 (+ (* 15 S10) (* 15 S11)))
 (= X8 (- (* 15 S10) (* 15 S11)))
 (= X8 (+ (* 15 S10) (* X3 S11)))
 (= X8 (- (* 15 S10) (* X3 S11)))
 (= X8 (- (* X3 S10) (* 15 S11)))
 (= X8 (+ (* 15 S10) (* X4 S11)))
 (= X8 (- (* 15 S10) (* X4 S11)))
 (= X8 (- (* X4 S10) (* 15 S11)))
 (= X8 (+ (* 15 S10) (* X5 S11)))
 (= X8 (- (* 15 S10) (* X5 S11)))
 (= X8 (- (* X5 S10) (* 15 S11)))
 (= X8 (+ (* 15 S10) (* X6 S11)))
 (= X8 (- (* 15 S10) (* X6 S11)))
 (= X8 (- (* X6 S10) (* 15 S11)))
 (= X8 (+ (* 15 S10) (* X7 S11)))
 (= X8 (- (* 15 S10) (* X7 S11)))
 (= X8 (- (* X7 S10) (* 15 S11)))
 (= X8 (+ (* X3 S10) S11))
 (= X8 (- (* X3 S10) S11))
 (= X8 (- S10 (* X3 S11)))
 (= X8 (+ (* X3 S10) (* X3 S11)))
 (= X8 (- (* X3 S10) (* X3 S11)))
 (= X8 (+ (* X3 S10) (* X4 S11)))
 (= X8 (- (* X3 S10) (* X4 S11)))
 (= X8 (- (* X4 S10) (* X3 S11)))
 (= X8 (+ (* X3 S10) (* X5 S11)))
 (= X8 (- (* X3 S10) (* X5 S11)))
 (= X8 (- (* X5 S10) (* X3 S11)))
 (= X8 (+ (* X3 S10) (* X6 S11)))
 (= X8 (- (* X3 S10) (* X6 S11)))
 (= X8 (- (* X6 S10) (* X3 S11)))
 (= X8 (+ (* X3 S10) (* X7 S11)))
 (= X8 (- (* X3 S10) (* X7 S11)))
 (= X8 (- (* X7 S10) (* X3 S11)))
 (= X8 (+ (* X4 S10) S11))
 (= X8 (- (* X4 S10) S11))
 (= X8 (- S10 (* X4 S11)))
 (= X8 (+ (* X4 S10) (* X4 S11)))
 (= X8 (- (* X4 S10) (* X4 S11)))
 (= X8 (+ (* X4 S10) (* X5 S11)))
 (= X8 (- (* X4 S10) (* X5 S11)))
 (= X8 (- (* X5 S10) (* X4 S11)))
 (= X8 (+ (* X4 S10) (* X6 S11)))
 (= X8 (- (* X4 S10) (* X6 S11)))
 (= X8 (- (* X6 S10) (* X4 S11)))
 (= X8 (+ (* X4 S10) (* X7 S11)))
 (= X8 (- (* X4 S10) (* X7 S11)))
 (= X8 (- (* X7 S10) (* X4 S11)))
 (= X8 (+ (* X5 S10) S11))
 (= X8 (- (* X5 S10) S11))
 (= X8 (- S10 (* X5 S11)))
 (= X8 (+ (* X5 S10) (* X5 S11)))
 (= X8 (- (* X5 S10) (* X5 S11)))
 (= X8 (+ (* X5 S10) (* X6 S11)))
 (= X8 (- (* X5 S10) (* X6 S11)))
 (= X8 (- (* X6 S10) (* X5 S11)))
 (= X8 (+ (* X5 S10) (* X7 S11)))
 (= X8 (- (* X5 S10) (* X7 S11)))
 (= X8 (- (* X7 S10) (* X5 S11)))
 (= X8 (+ (* X6 S10) S11))
 (= X8 (- (* X6 S10) S11))
 (= X8 (- S10 (* X6 S11)))
 (= X8 (+ (* X6 S10) (* X6 S11)))
 (= X8 (- (* X6 S10) (* X6 S11)))
 (= X8 (+ (* X6 S10) (* X7 S11)))
 (= X8 (- (* X6 S10) (* X7 S11)))
 (= X8 (- (* X7 S10) (* X6 S11)))
 (= X8 (+ (* X7 S10) S11))
 (= X8 (- (* X7 S10) S11))
 (= X8 (- S10 (* X7 S11)))
 (= X8 (+ (* X7 S10) (* X7 S11)))
 (= X8 (- (* X7 S10) (* X7 S11)))
))
(assert (and (> X8 0) (< X8 2048) (power2 S10) (power2 S11)))
(assert (or
 (= X9 (+ (* 33 S12) S13))
 (= X9 (- (* 33 S12) S13))
 (= X9 (- S12 (* 33 S13)))
 (= X9 (+ (* 33 S12) (* 33 S13)))
 (= X9 (- (* 33 S12) (* 33 S13)))
 (= X9 (+ (* 33 S12) (* 511 S13)))
 (= X9 (- (* 33 S12) (* 511 S13)))
 (= X9 (- (* 511 S12) (* 33 S13)))
 (= X9 (+ (* 33 S12) (* 15 S13)))
 (= X9 (- (* 33 S12) (* 15 S13)))
 (= X9 (- (* 15 S12) (* 33 S13)))
 (= X9 (+ (* 33 S12) (* X3 S13)))
 (= X9 (- (* 33 S12) (* X3 S13)))
 (= X9 (- (* X3 S12) (* 33 S13)))
 (= X9 (+ (* 33 S12) (* X4 S13)))
 (= X9 (- (* 33 S12) (* X4 S13)))
 (= X9 (- (* X4 S12) (* 33 S13)))
 (= X9 (+ (* 33 S12) (* X5 S13)))
 (= X9 (- (* 33 S12) (* X5 S13)))
 (= X9 (- (* X5 S12) (* 33 S13)))
 (= X9 (+ (* 33 S12) (* X6 S13)))
 (= X9 (- (* 33 S12) (* X6 S13)))
 (= X9 (- (* X6 S12) (* 33 S13)))
 (= X9 (+ (* 33 S12) (* X7 S13)))
 (= X9 (- (* 33 S12) (* X7 S13)))
 (= X9 (- (* X7 S12) (* 33 S13)))
 (= X9 (+ (* 33 S12) (* X8 S13)))
 (= X9 (- (* 33 S12) (* X8 S13)))
 (= X9 (- (* X8 S12) (* 33 S13)))
 (= X9 (+ (* 511 S12) S13))
 (= X9 (- (* 511 S12) S13))
 (= X9 (- S12 (* 511 S13)))
 (= X9 (+ (* 511 S12) (* 511 S13)))
 (= X9 (- (* 511 S12) (* 511 S13)))
 (= X9 (+ (* 511 S12) (* 15 S13)))
 (= X9 (- (* 511 S12) (* 15 S13)))
 (= X9 (- (* 15 S12) (* 511 S13)))
 (= X9 (+ (* 511 S12) (* X3 S13)))
 (= X9 (- (* 511 S12) (* X3 S13)))
 (= X9 (- (* X3 S12) (* 511 S13)))
 (= X9 (+ (* 511 S12) (* X4 S13)))
 (= X9 (- (* 511 S12) (* X4 S13)))
 (= X9 (- (* X4 S12) (* 511 S13)))
 (= X9 (+ (* 511 S12) (* X5 S13)))
 (= X9 (- (* 511 S12) (* X5 S13)))
 (= X9 (- (* X5 S12) (* 511 S13)))
 (= X9 (+ (* 511 S12) (* X6 S13)))
 (= X9 (- (* 511 S12) (* X6 S13)))
 (= X9 (- (* X6 S12) (* 511 S13)))
 (= X9 (+ (* 511 S12) (* X7 S13)))
 (= X9 (- (* 511 S12) (* X7 S13)))
 (= X9 (- (* X7 S12) (* 511 S13)))
 (= X9 (+ (* 511 S12) (* X8 S13)))
 (= X9 (- (* 511 S12) (* X8 S13)))
 (= X9 (- (* X8 S12) (* 511 S13)))
 (= X9 (+ (* 15 S12) S13))
 (= X9 (- (* 15 S12) S13))
 (= X9 (- S12 (* 15 S13)))
 (= X9 (+ (* 15 S12) (* 15 S13)))
 (= X9 (- (* 15 S12) (* 15 S13)))
 (= X9 (+ (* 15 S12) (* X3 S13)))
 (= X9 (- (* 15 S12) (* X3 S13)))
 (= X9 (- (* X3 S12) (* 15 S13)))
 (= X9 (+ (* 15 S12) (* X4 S13)))
 (= X9 (- (* 15 S12) (* X4 S13)))
 (= X9 (- (* X4 S12) (* 15 S13)))
 (= X9 (+ (* 15 S12) (* X5 S13)))
 (= X9 (- (* 15 S12) (* X5 S13)))
 (= X9 (- (* X5 S12) (* 15 S13)))
 (= X9 (+ (* 15 S12) (* X6 S13)))
 (= X9 (- (* 15 S12) (* X6 S13)))
 (= X9 (- (* X6 S12) (* 15 S13)))
 (= X9 (+ (* 15 S12) (* X7 S13)))
 (= X9 (- (* 15 S12) (* X7 S13)))
 (= X9 (- (* X7 S12) (* 15 S13)))
 (= X9 (+ (* 15 S12) (* X8 S13)))
 (= X9 (- (* 15 S12) (* X8 S13)))
 (= X9 (- (* X8 S12) (* 15 S13)))
 (= X9 (+ (* X3 S12) S13))
 (= X9 (- (* X3 S12) S13))
 (= X9 (- S12 (* X3 S13)))
 (= X9 (+ (* X3 S12) (* X3 S13)))
 (= X9 (- (* X3 S12) (* X3 S13)))
 (= X9 (+ (* X3 S12) (* X4 S13)))
 (= X9 (- (* X3 S12) (* X4 S13)))
 (= X9 (- (* X4 S12) (* X3 S13)))
 (= X9 (+ (* X3 S12) (* X5 S13)))
 (= X9 (- (* X3 S12) (* X5 S13)))
 (= X9 (- (* X5 S12) (* X3 S13)))
 (= X9 (+ (* X3 S12) (* X6 S13)))
 (= X9 (- (* X3 S12) (* X6 S13)))
 (= X9 (- (* X6 S12) (* X3 S13)))
 (= X9 (+ (* X3 S12) (* X7 S13)))
 (= X9 (- (* X3 S12) (* X7 S13)))
 (= X9 (- (* X7 S12) (* X3 S13)))
 (= X9 (+ (* X3 S12) (* X8 S13)))
 (= X9 (- (* X3 S12) (* X8 S13)))
 (= X9 (- (* X8 S12) (* X3 S13)))
 (= X9 (+ (* X4 S12) S13))
 (= X9 (- (* X4 S12) S13))
 (= X9 (- S12 (* X4 S13)))
 (= X9 (+ (* X4 S12) (* X4 S13)))
 (= X9 (- (* X4 S12) (* X4 S13)))
 (= X9 (+ (* X4 S12) (* X5 S13)))
 (= X9 (- (* X4 S12) (* X5 S13)))
 (= X9 (- (* X5 S12) (* X4 S13)))
 (= X9 (+ (* X4 S12) (* X6 S13)))
 (= X9 (- (* X4 S12) (* X6 S13)))
 (= X9 (- (* X6 S12) (* X4 S13)))
 (= X9 (+ (* X4 S12) (* X7 S13)))
 (= X9 (- (* X4 S12) (* X7 S13)))
 (= X9 (- (* X7 S12) (* X4 S13)))
 (= X9 (+ (* X4 S12) (* X8 S13)))
 (= X9 (- (* X4 S12) (* X8 S13)))
 (= X9 (- (* X8 S12) (* X4 S13)))
 (= X9 (+ (* X5 S12) S13))
 (= X9 (- (* X5 S12) S13))
 (= X9 (- S12 (* X5 S13)))
 (= X9 (+ (* X5 S12) (* X5 S13)))
 (= X9 (- (* X5 S12) (* X5 S13)))
 (= X9 (+ (* X5 S12) (* X6 S13)))
 (= X9 (- (* X5 S12) (* X6 S13)))
 (= X9 (- (* X6 S12) (* X5 S13)))
 (= X9 (+ (* X5 S12) (* X7 S13)))
 (= X9 (- (* X5 S12) (* X7 S13)))
 (= X9 (- (* X7 S12) (* X5 S13)))
 (= X9 (+ (* X5 S12) (* X8 S13)))
 (= X9 (- (* X5 S12) (* X8 S13)))
 (= X9 (- (* X8 S12) (* X5 S13)))
 (= X9 (+ (* X6 S12) S13))
 (= X9 (- (* X6 S12) S13))
 (= X9 (- S12 (* X6 S13)))
 (= X9 (+ (* X6 S12) (* X6 S13)))
 (= X9 (- (* X6 S12) (* X6 S13)))
 (= X9 (+ (* X6 S12) (* X7 S13)))
 (= X9 (- (* X6 S12) (* X7 S13)))
 (= X9 (- (* X7 S12) (* X6 S13)))
 (= X9 (+ (* X6 S12) (* X8 S13)))
 (= X9 (- (* X6 S12) (* X8 S13)))
 (= X9 (- (* X8 S12) (* X6 S13)))
 (= X9 (+ (* X7 S12) S13))
 (= X9 (- (* X7 S12) S13))
 (= X9 (- S12 (* X7 S13)))
 (= X9 (+ (* X7 S12) (* X7 S13)))
 (= X9 (- (* X7 S12) (* X7 S13)))
 (= X9 (+ (* X7 S12) (* X8 S13)))
 (= X9 (- (* X7 S12) (* X8 S13)))
 (= X9 (- (* X8 S12) (* X7 S13)))
 (= X9 (+ (* X8 S12) S13))
 (= X9 (- (* X8 S12) S13))
 (= X9 (- S12 (* X8 S13)))
 (= X9 (+ (* X8 S12) (* X8 S13)))
 (= X9 (- (* X8 S12) (* X8 S13)))
))
(assert (and (> X9 0) (< X9 2048) (power2 S12) (power2 S13)))
(assert (or
 (= X10 (+ (* 33 S14) S15))
 (= X10 (- (* 33 S14) S15))
 (= X10 (- S14 (* 33 S15)))
 (= X10 (+ (* 33 S14) (* 33 S15)))
 (= X10 (- (* 33 S14) (* 33 S15)))
 (= X10 (+ (* 33 S14) (* 511 S15)))
 (= X10 (- (* 33 S14) (* 511 S15)))
 (= X10 (- (* 511 S14) (* 33 S15)))
 (= X10 (+ (* 33 S14) (* 15 S15)))
 (= X10 (- (* 33 S14) (* 15 S15)))
 (= X10 (- (* 15 S14) (* 33 S15)))
 (= X10 (+ (* 33 S14) (* X3 S15)))
 (= X10 (- (* 33 S14) (* X3 S15)))
 (= X10 (- (* X3 S14) (* 33 S15)))
 (= X10 (+ (* 33 S14) (* X4 S15)))
 (= X10 (- (* 33 S14) (* X4 S15)))
 (= X10 (- (* X4 S14) (* 33 S15)))
 (= X10 (+ (* 33 S14) (* X5 S15)))
 (= X10 (- (* 33 S14) (* X5 S15)))
 (= X10 (- (* X5 S14) (* 33 S15)))
 (= X10 (+ (* 33 S14) (* X6 S15)))
 (= X10 (- (* 33 S14) (* X6 S15)))
 (= X10 (- (* X6 S14) (* 33 S15)))
 (= X10 (+ (* 33 S14) (* X7 S15)))
 (= X10 (- (* 33 S14) (* X7 S15)))
 (= X10 (- (* X7 S14) (* 33 S15)))
 (= X10 (+ (* 33 S14) (* X8 S15)))
 (= X10 (- (* 33 S14) (* X8 S15)))
 (= X10 (- (* X8 S14) (* 33 S15)))
 (= X10 (+ (* 33 S14) (* X9 S15)))
 (= X10 (- (* 33 S14) (* X9 S15)))
 (= X10 (- (* X9 S14) (* 33 S15)))
 (= X10 (+ (* 511 S14) S15))
 (= X10 (- (* 511 S14) S15))
 (= X10 (- S14 (* 511 S15)))
 (= X10 (+ (* 511 S14) (* 511 S15)))
 (= X10 (- (* 511 S14) (* 511 S15)))
 (= X10 (+ (* 511 S14) (* 15 S15)))
 (= X10 (- (* 511 S14) (* 15 S15)))
 (= X10 (- (* 15 S14) (* 511 S15)))
 (= X10 (+ (* 511 S14) (* X3 S15)))
 (= X10 (- (* 511 S14) (* X3 S15)))
 (= X10 (- (* X3 S14) (* 511 S15)))
 (= X10 (+ (* 511 S14) (* X4 S15)))
 (= X10 (- (* 511 S14) (* X4 S15)))
 (= X10 (- (* X4 S14) (* 511 S15)))
 (= X10 (+ (* 511 S14) (* X5 S15)))
 (= X10 (- (* 511 S14) (* X5 S15)))
 (= X10 (- (* X5 S14) (* 511 S15)))
 (= X10 (+ (* 511 S14) (* X6 S15)))
 (= X10 (- (* 511 S14) (* X6 S15)))
 (= X10 (- (* X6 S14) (* 511 S15)))
 (= X10 (+ (* 511 S14) (* X7 S15)))
 (= X10 (- (* 511 S14) (* X7 S15)))
 (= X10 (- (* X7 S14) (* 511 S15)))
 (= X10 (+ (* 511 S14) (* X8 S15)))
 (= X10 (- (* 511 S14) (* X8 S15)))
 (= X10 (- (* X8 S14) (* 511 S15)))
 (= X10 (+ (* 511 S14) (* X9 S15)))
 (= X10 (- (* 511 S14) (* X9 S15)))
 (= X10 (- (* X9 S14) (* 511 S15)))
 (= X10 (+ (* 15 S14) S15))
 (= X10 (- (* 15 S14) S15))
 (= X10 (- S14 (* 15 S15)))
 (= X10 (+ (* 15 S14) (* 15 S15)))
 (= X10 (- (* 15 S14) (* 15 S15)))
 (= X10 (+ (* 15 S14) (* X3 S15)))
 (= X10 (- (* 15 S14) (* X3 S15)))
 (= X10 (- (* X3 S14) (* 15 S15)))
 (= X10 (+ (* 15 S14) (* X4 S15)))
 (= X10 (- (* 15 S14) (* X4 S15)))
 (= X10 (- (* X4 S14) (* 15 S15)))
 (= X10 (+ (* 15 S14) (* X5 S15)))
 (= X10 (- (* 15 S14) (* X5 S15)))
 (= X10 (- (* X5 S14) (* 15 S15)))
 (= X10 (+ (* 15 S14) (* X6 S15)))
 (= X10 (- (* 15 S14) (* X6 S15)))
 (= X10 (- (* X6 S14) (* 15 S15)))
 (= X10 (+ (* 15 S14) (* X7 S15)))
 (= X10 (- (* 15 S14) (* X7 S15)))
 (= X10 (- (* X7 S14) (* 15 S15)))
 (= X10 (+ (* 15 S14) (* X8 S15)))
 (= X10 (- (* 15 S14) (* X8 S15)))
 (= X10 (- (* X8 S14) (* 15 S15)))
 (= X10 (+ (* 15 S14) (* X9 S15)))
 (= X10 (- (* 15 S14) (* X9 S15)))
 (= X10 (- (* X9 S14) (* 15 S15)))
 (= X10 (+ (* X3 S14) S15))
 (= X10 (- (* X3 S14) S15))
 (= X10 (- S14 (* X3 S15)))
 (= X10 (+ (* X3 S14) (* X3 S15)))
 (= X10 (- (* X3 S14) (* X3 S15)))
 (= X10 (+ (* X3 S14) (* X4 S15)))
 (= X10 (- (* X3 S14) (* X4 S15)))
 (= X10 (- (* X4 S14) (* X3 S15)))
 (= X10 (+ (* X3 S14) (* X5 S15)))
 (= X10 (- (* X3 S14) (* X5 S15)))
 (= X10 (- (* X5 S14) (* X3 S15)))
 (= X10 (+ (* X3 S14) (* X6 S15)))
 (= X10 (- (* X3 S14) (* X6 S15)))
 (= X10 (- (* X6 S14) (* X3 S15)))
 (= X10 (+ (* X3 S14) (* X7 S15)))
 (= X10 (- (* X3 S14) (* X7 S15)))
 (= X10 (- (* X7 S14) (* X3 S15)))
 (= X10 (+ (* X3 S14) (* X8 S15)))
 (= X10 (- (* X3 S14) (* X8 S15)))
 (= X10 (- (* X8 S14) (* X3 S15)))
 (= X10 (+ (* X3 S14) (* X9 S15)))
 (= X10 (- (* X3 S14) (* X9 S15)))
 (= X10 (- (* X9 S14) (* X3 S15)))
 (= X10 (+ (* X4 S14) S15))
 (= X10 (- (* X4 S14) S15))
 (= X10 (- S14 (* X4 S15)))
 (= X10 (+ (* X4 S14) (* X4 S15)))
 (= X10 (- (* X4 S14) (* X4 S15)))
 (= X10 (+ (* X4 S14) (* X5 S15)))
 (= X10 (- (* X4 S14) (* X5 S15)))
 (= X10 (- (* X5 S14) (* X4 S15)))
 (= X10 (+ (* X4 S14) (* X6 S15)))
 (= X10 (- (* X4 S14) (* X6 S15)))
 (= X10 (- (* X6 S14) (* X4 S15)))
 (= X10 (+ (* X4 S14) (* X7 S15)))
 (= X10 (- (* X4 S14) (* X7 S15)))
 (= X10 (- (* X7 S14) (* X4 S15)))
 (= X10 (+ (* X4 S14) (* X8 S15)))
 (= X10 (- (* X4 S14) (* X8 S15)))
 (= X10 (- (* X8 S14) (* X4 S15)))
 (= X10 (+ (* X4 S14) (* X9 S15)))
 (= X10 (- (* X4 S14) (* X9 S15)))
 (= X10 (- (* X9 S14) (* X4 S15)))
 (= X10 (+ (* X5 S14) S15))
 (= X10 (- (* X5 S14) S15))
 (= X10 (- S14 (* X5 S15)))
 (= X10 (+ (* X5 S14) (* X5 S15)))
 (= X10 (- (* X5 S14) (* X5 S15)))
 (= X10 (+ (* X5 S14) (* X6 S15)))
 (= X10 (- (* X5 S14) (* X6 S15)))
 (= X10 (- (* X6 S14) (* X5 S15)))
 (= X10 (+ (* X5 S14) (* X7 S15)))
 (= X10 (- (* X5 S14) (* X7 S15)))
 (= X10 (- (* X7 S14) (* X5 S15)))
 (= X10 (+ (* X5 S14) (* X8 S15)))
 (= X10 (- (* X5 S14) (* X8 S15)))
 (= X10 (- (* X8 S14) (* X5 S15)))
 (= X10 (+ (* X5 S14) (* X9 S15)))
 (= X10 (- (* X5 S14) (* X9 S15)))
 (= X10 (- (* X9 S14) (* X5 S15)))
 (= X10 (+ (* X6 S14) S15))
 (= X10 (- (* X6 S14) S15))
 (= X10 (- S14 (* X6 S15)))
 (= X10 (+ (* X6 S14) (* X6 S15)))
 (= X10 (- (* X6 S14) (* X6 S15)))
 (= X10 (+ (* X6 S14) (* X7 S15)))
 (= X10 (- (* X6 S14) (* X7 S15)))
 (= X10 (- (* X7 S14) (* X6 S15)))
 (= X10 (+ (* X6 S14) (* X8 S15)))
 (= X10 (- (* X6 S14) (* X8 S15)))
 (= X10 (- (* X8 S14) (* X6 S15)))
 (= X10 (+ (* X6 S14) (* X9 S15)))
 (= X10 (- (* X6 S14) (* X9 S15)))
 (= X10 (- (* X9 S14) (* X6 S15)))
 (= X10 (+ (* X7 S14) S15))
 (= X10 (- (* X7 S14) S15))
 (= X10 (- S14 (* X7 S15)))
 (= X10 (+ (* X7 S14) (* X7 S15)))
 (= X10 (- (* X7 S14) (* X7 S15)))
 (= X10 (+ (* X7 S14) (* X8 S15)))
 (= X10 (- (* X7 S14) (* X8 S15)))
 (= X10 (- (* X8 S14) (* X7 S15)))
 (= X10 (+ (* X7 S14) (* X9 S15)))
 (= X10 (- (* X7 S14) (* X9 S15)))
 (= X10 (- (* X9 S14) (* X7 S15)))
 (= X10 (+ (* X8 S14) S15))
 (= X10 (- (* X8 S14) S15))
 (= X10 (- S14 (* X8 S15)))
 (= X10 (+ (* X8 S14) (* X8 S15)))
 (= X10 (- (* X8 S14) (* X8 S15)))
 (= X10 (+ (* X8 S14) (* X9 S15)))
 (= X10 (- (* X8 S14) (* X9 S15)))
 (= X10 (- (* X9 S14) (* X8 S15)))
 (= X10 (+ (* X9 S14) S15))
 (= X10 (- (* X9 S14) S15))
 (= X10 (- S14 (* X9 S15)))
 (= X10 (+ (* X9 S14) (* X9 S15)))
 (= X10 (- (* X9 S14) (* X9 S15)))
))
(assert (and (> X10 0) (< X10 2048) (power2 S14) (power2 S15)))
(assert (or
 (= X4 193)
 (= X5 193)
 (= X6 193)
 (= X7 193)
 (= X8 193)
 (= X9 193)
 (= X10 193)
))
(assert (or
 (= X4 539)
 (= X5 539)
 (= X6 539)
 (= X7 539)
 (= X8 539)
 (= X9 539)
 (= X10 539)
))
(assert (or
 (= X4 151)
 (= X5 151)
 (= X6 151)
 (= X7 151)
 (= X8 151)
 (= X9 151)
 (= X10 151)
))
(assert (or
 (= X4 141)
 (= X5 141)
 (= X6 141)
 (= X7 141)
 (= X8 141)
 (= X9 141)
 (= X10 141)
))
(assert (or
 (= X4 413)
 (= X5 413)
 (= X6 413)
 (= X7 413)
 (= X8 413)
 (= X9 413)
 (= X10 413)
))
(assert (or
 (= X4 435)
 (= X5 435)
 (= X6 435)
 (= X7 435)
 (= X8 435)
 (= X9 435)
 (= X10 435)
))
(assert (or
 (= X4 251)
 (= X5 251)
 (= X6 251)
 (= X7 251)
 (= X8 251)
 (= X9 251)
 (= X10 251)
))
(check-sat)
(exit)
